%nprocshared=16
%mem=32GB
#p opt pop=hirshfeld freq=noraman b3lyp/genecp empiricaldispersion=gd3bj scrf=(smd,solvent=dichloromethane)

title

-1 1
 6 0.94225300 -0.00019000 -0.00006700
16 -0.91068900 -0.00001900 0.00011500
 8 -1.23831600 0.07907500 -1.44200300
 8 -1.23872000 -1.28825400 0.65293900
 8 -1.23747000 1.20992300 0.78924600
 9 1.43114500 -0.06518800 1.25350800
 9 1.43086500 1.11804500 -0.57050500
 9 1.43060700 -1.05335800 -0.68332400

-C -H -N -O -F -S 0
6-31G(d)
****
-Cu -Sb
SDD
****

-Cu -Sb
SDD

