%nprocshared=16
%mem=32GB
#p opt b3lyp/6-31g(d)

title

0 1
15 -2.77856235 0.79412668 -1.00892384
 8 -1.75356760 1.72713510 -0.47197868
 6 -0.04751605 -0.10595548 0.55231328
 8 -0.23556242 -1.52184222 0.66933218
 6 0.02220576 0.15950309 -0.94556291
 6 -0.83042987 -0.95057098 -1.55781855
 8 -2.25640408 -0.60800524 -1.49082780
 6 -0.64286358 -2.14189306 -0.63103846
 6 0.41144351 -3.17741408 -1.04701013
 8 1.59244666 -2.49191700 -1.39227498
 7 1.55084482 1.90062005 4.89972033
 6 0.36523361 1.88306407 4.30874111
 7 0.00554028 1.36720758 3.16272085
 6 1.06042270 0.85091210 2.53164852
 6 2.37842312 0.79690599 2.96694516
 6 2.61494461 1.41428989 4.25710636
 7 3.23938017 0.18570980 2.04789890
 6 2.41869902 -0.15518138 1.07539480
 7 1.12487323 0.28347357 1.28331308
 6 -0.10630104 -0.19383538 -2.88584428
 8 -0.61830104 1.12126462 -2.75284428
 6 -1.93660104 -0.11143538 -4.29134428
 6 -1.56660104 1.30486462 -3.74014428
 6 -2.72960104 2.21516462 -3.21354428
 8 -3.49800104 1.34666462 -2.22554428
 7 0.08079896 -0.71133538 -1.46934428
 6 1.25739896 -1.29933538 -1.19024428
 8 2.09439896 -1.52863538 -2.00134428
 7 1.44459896 -1.65273538 0.13965572
 6 0.52209896 -1.43593538 1.18305572
 6 -0.74010104 -0.83993538 0.81305572
 6 -0.88340104 -0.50743538 -0.48204428
 6 -1.72230104 -0.55993538 1.88175572
 8 -1.23520104 -0.01603538 -5.65524428
 6 -1.38680104 -1.00593538 -3.28194428
 1 -0.95956923 0.43219443 0.89146035
 1 1.12835018 0.02748941 -1.32244344
 1 -0.28554994 1.14068715 -1.29446526
 1 -0.49093125 -1.18706407 -2.59241780
 1 -1.59344326 -2.65135086 -0.52201642
 1 0.68473997 -3.85157830 -0.21753771
 1 0.10324430 -3.77381180 -1.90148206
 1 2.19499382 -3.46780429 -1.53420938
 1 2.71343191 -0.73064353 0.20007012
 1 0.79049896 -0.37213538 -3.55744428
 1 -2.20730104 -1.00193538 -2.61404428
 1 -1.34300104 -1.83963538 -3.93864428
 1 -3.03880104 -0.18043538 -4.38674428
 1 -1.12030104 1.89886462 -4.60164428
 1 -2.37960104 3.13416462 -2.78654428
 1 -3.42500104 2.49626462 -4.09364428
 1 -1.84770104 -0.00753538 -0.80364428
 8 -4.09309678 0.45576955 0.03115153
 1 -0.37550104 0.39686462 -5.54484428
 8 3.93212262 1.46142774 4.81197713
 7 -0.65494917 2.59378570 5.09295047
 1 -1.59093101 2.66468703 4.74826956
 1 -0.41317431 3.00590883 5.97030858
 1 1.64794450 2.27594063 5.82152068
 7 0.85709896 -1.66443538 2.41145572
 1 1.74009896 -2.08543538 2.61895572
 1 0.23299896 -1.42003538 3.15355572
 1 -1.30640104 0.14266462 2.57325572
 1 -2.61220104 -0.15163538 1.45015572
 1 -1.95930104 -1.46823538 2.39525572

