%nprocshared=16
%mem=32GB
#p opt b3lyp/6-31g(d)

title

0 1
15 -0.13283625 -1.39288795 -1.63125869
 8 -0.45102249 -1.52701142 -3.07701021
 6 -2.91557386 1.68273669 0.34277229
 8 -1.84972279 2.57113269 -0.01570247
 6 -3.11551573 0.79483659 -0.87813685
 6 -1.73400596 0.74397156 -1.52848478
 8 -0.88039787 -0.24552282 -0.85953368
 6 -1.11336060 2.10035587 -1.23121101
 6 -1.22663724 3.16451191 -2.33195619
 8 -2.56213938 3.19873359 -2.77821330
 7 -5.51302539 3.43273567 4.30153474
 6 -4.59424247 2.48517002 4.18666142
 7 -3.96472890 2.04966122 3.12699430
 6 -4.41410701 2.66341050 2.03202335
 6 -5.38351856 3.65409220 1.94083152
 6 -5.98876356 4.02606173 3.20453179
 7 -5.61908473 4.07761396 0.62759439
 6 -4.75827399 3.35602390 -0.06073781
 7 -4.06993415 2.44766112 0.72073430
 6 4.72594101 -2.64089192 -2.03624345
 8 4.21394101 -1.32579192 -1.90324345
 6 2.89564101 -2.55849192 -3.44174345
 6 3.26564101 -1.14219192 -2.89054345
 6 2.10264101 -0.23189192 -2.36394345
 8 1.33424101 -1.10039192 -1.37594345
 7 4.91304101 -3.15839192 -0.61974345
 6 6.08964101 -3.74639192 -0.34064345
 8 6.92664101 -3.97569192 -1.15174345
 7 6.27684101 -4.09979192 0.98925655
 6 5.35434101 -3.88299192 2.03265655
 6 4.09214101 -3.28699192 1.66265655
 6 3.94884101 -2.95449192 0.36755655
 6 3.10994101 -3.00699192 2.73135655
 8 3.59704101 -2.46309192 -4.80564345
 6 3.44544101 -3.45299192 -2.43234345
 1 -2.58339778 0.98789995 1.14484960
 1 -3.85937373 1.31108029 -1.62859652
 1 -3.51802349 -0.20001570 -0.71253186
 1 -1.81802522 0.57069870 -2.62598247
 1 -0.06310486 1.96014849 -1.00243259
 1 -1.00723292 4.17855233 -1.95672741
 1 -0.58855257 2.95724979 -3.18676004
 1 -2.37746855 4.10854774 -3.46647149
 1 -4.58962480 3.46144222 -1.13062654
 1 5.62274101 -2.81919192 -2.70784345
 1 2.62494101 -3.44899192 -1.76444345
 1 3.48924101 -4.28669192 -3.08904345
 1 1.79344101 -2.62749192 -3.53714345
 1 3.71194101 -0.54819192 -3.75204345
 1 2.45264101 0.68710808 -1.93694345
 1 1.40724101 0.04920808 -3.24404345
 1 2.98454101 -2.45459192 0.04595655
 8 -0.36216783 -2.79951732 -0.68624867
 1 4.45674101 -2.05019192 -4.69524345
 8 -7.02578049 5.00950857 3.25442829
 7 -4.30091681 1.83929448 5.47417348
 1 -3.63314006 1.09642994 5.52022165
 1 -4.76868258 2.14257606 6.30319294
 1 -5.84806670 3.70175894 5.20452066
 7 5.68934101 -4.11149192 3.26105655
 1 6.57234101 -4.53249192 3.46855655
 1 5.06524101 -3.86709192 4.00315655
 1 3.52584101 -2.30439192 3.42285655
 1 2.22004101 -2.59869192 2.29975655
 1 2.87294101 -3.91529192 3.24485655

