%nprocshared=16
%mem=32GB
#p opt b3lyp/6-31g(d)

title

0 1
15 -0.81740159 -0.33329012 -2.06910491
 8 -1.58890870 0.60959510 -2.92067599
 6 -2.00280286 1.70391041 1.27153443
 8 -0.72871200 1.74860632 1.92612199
 6 -1.72307647 2.12844027 -0.16390626
 6 -0.28034896 1.68757607 -0.40532914
 8 -0.22211090 0.25946796 -0.74052617
 6 0.40121707 1.82749983 0.94716479
 6 1.18799173 3.12324374 1.18992597
 8 0.37766034 4.21056790 0.80917444
 7 -5.78552208 1.67587153 4.61388393
 6 -5.23566270 0.71818348 3.88195028
 7 -4.26698253 0.78152077 3.00645226
 6 -3.86722177 2.04291181 2.84312982
 6 -4.33350679 3.18086546 3.48901269
 6 -5.41090877 2.94372813 4.42954025
 7 -3.69316485 4.35402646 3.07294860
 6 -2.81734798 3.90296493 2.19831905
 7 -2.93133221 2.54433961 1.97297890
 6 3.78507802 -2.45178402 -3.43862370
 8 3.27307802 -1.13668402 -3.30562370
 6 1.95477802 -2.36938402 -4.84412370
 6 2.32477802 -0.95308402 -4.29292370
 6 1.16177802 -0.04278402 -3.76632370
 8 0.39337802 -0.91128402 -2.77832370
 7 3.97217802 -2.96928402 -2.02212370
 6 5.14877802 -3.55728402 -1.74302370
 8 5.98577802 -3.78658402 -2.55412370
 7 5.33597802 -3.91068402 -0.41312370
 6 4.41347802 -3.69388402 0.63027630
 6 3.15127802 -3.09788402 0.26027630
 6 3.00797802 -2.76538402 -1.03482370
 6 2.16907802 -2.81788402 1.32897630
 8 2.65617802 -2.27398402 -6.20802370
 6 2.50457802 -3.26388402 -3.83472370
 1 -2.35653915 0.65283530 1.19042462
 1 -1.77146704 3.30035450 -0.24933099
 1 -2.39093677 1.75586084 -0.93482505
 1 0.20858177 2.33169312 -1.17190847
 1 1.07607983 0.99053190 1.08529425
 1 1.41907072 3.27776063 2.25760564
 1 2.11030287 3.17066100 0.61730653
 1 1.13612174 4.99408508 1.19179902
 1 -2.07041890 4.52242034 1.70578539
 1 4.68187802 -2.63008402 -4.11022370
 1 1.68407802 -3.25988402 -3.16682370
 1 2.54837802 -4.09758402 -4.49142370
 1 0.85257802 -2.43838402 -4.93952370
 1 2.77107802 -0.35908402 -5.15442370
 1 1.51177802 0.87621598 -3.33932370
 1 0.46637802 0.23831598 -4.64642370
 1 2.04367802 -2.26548402 -1.35642370
 8 -1.64149614 -1.75683795 -1.60153372
 1 3.51587802 -1.86108402 -6.09762370
 8 -6.01009295 4.03030933 5.14044183
 7 -5.87332490 -0.58684401 4.10816394
 1 -5.55854724 -1.39116674 3.60430492
 1 -6.62113428 -0.67018988 4.76534914
 1 -6.47696934 1.45027327 5.30018989
 7 4.74847802 -3.92238402 1.85867630
 1 5.63147802 -4.34338402 2.06617630
 1 4.12437802 -3.67798402 2.60077630
 1 2.58497802 -2.11528402 2.02047630
 1 1.27917802 -2.40958402 0.89737630
 1 1.93207802 -3.72618402 1.84247630

