%nprocshared=16
%mem=32GB
#p opt b3lyp/6-31g(d)

title

0 1
15 -2.78220754 0.40115495 1.07406120
 8 -1.30389192 0.25715468 1.01682591
 6 -0.74654963 -0.31926953 -1.02807073
 8 -0.73512018 -1.56027705 -0.31143984
 6 -2.02408967 -0.35451028 -1.85608762
 6 -2.97229740 -1.22754938 -1.03583537
 8 -3.60290157 -0.44636991 0.03530352
 6 -2.07041209 -2.23659018 -0.34172421
 6 -1.92502052 -3.60764610 -1.01697718
 8 -1.65635092 -3.40101904 -2.38409254
 7 3.83200042 1.80518220 -1.09615398
 6 2.74155534 2.06001007 -0.38817737
 7 1.56440475 1.49274590 -0.42529212
 6 1.52181400 0.56837684 -1.38514529
 6 2.53995975 0.17790838 -2.24563268
 6 3.78376378 0.90384594 -2.07953807
 7 2.15152652 -0.82394031 -3.14277965
 6 0.90345992 -1.05231424 -2.78828896
 7 0.46011044 -0.19866090 -1.79614454
 6 0.14635143 0.28368282 0.16167480
 8 -0.36564857 1.59878282 0.29467480
 6 -1.68394857 0.36608282 -1.24382520
 6 -1.31394857 1.78238282 -0.69262520
 6 -2.47694857 2.69268282 -0.16602520
 8 -3.24534857 1.82418282 0.82197480
 7 0.33345143 -0.23381718 1.57817480
 6 1.51005143 -0.82181718 1.85727480
 8 2.34705143 -1.05111718 1.04617480
 7 1.69725143 -1.17521718 3.18717480
 6 0.77475143 -0.95841718 4.23057480
 6 -0.48744857 -0.36241718 3.86057480
 6 -0.63074857 -0.02991718 2.56547480
 6 -1.46964857 -0.08241718 4.92927480
 8 -0.98254857 0.46148282 -2.60772520
 6 -1.13414857 -0.52841718 -0.23442520
 1 -0.89047312 0.52957573 -0.32435573
 1 -1.81934751 -0.89233315 -2.88168462
 1 -2.47820542 0.59708013 -2.11574737
 1 -3.71391578 -1.73545443 -1.69433254
 1 -2.43449761 -2.39286242 0.66726317
 1 -1.06683848 -4.17828585 -0.62314129
 1 -2.82206102 -4.21551400 -0.93564934
 1 -1.48942650 -4.52617091 -2.58838143
 1 0.27960699 -1.83454245 -3.21624225
 1 1.04315143 0.10538282 -0.50992520
 1 -1.95464857 -0.52441718 0.43347480
 1 -1.09034857 -1.36211718 -0.89112520
 1 -2.78614857 0.29708282 -1.33922520
 1 -0.86764857 2.37638282 -1.55412520
 1 -2.12694857 3.61168282 0.26097480
 1 -3.17234857 2.97378282 -1.04612520
 1 -1.59504857 0.46998282 2.24387480
 8 -3.50197900 0.07971629 2.59157540
 1 -0.12284857 0.87438282 -2.49732520
 8 4.90619713 0.62880707 -2.92189100
 7 2.93499304 3.18145733 0.54231732
 1 2.18083223 3.48291904 1.12563219
 1 3.81994589 3.64238178 0.59196509
 1 4.68592371 2.28517003 -0.89506578
 7 1.10975143 -1.18691718 5.45897480
 1 1.99275143 -1.60791718 5.66647480
 1 0.48565143 -0.94251718 6.20107480
 1 -1.05374857 0.62018282 5.62077480
 1 -2.35954857 0.32588282 4.49767480
 1 -1.70664857 -0.99071718 5.44277480

