%nprocshared=16
%mem=32GB
#p opt b3lyp/6-31g(d)

title

0 1
15 -1.64952904 -0.25228787 2.21744972
 8 -0.17121341 -0.39628814 2.16021443
 6 -1.19676499 -0.14184972 -1.42251482
 8 -0.04607161 -0.52643188 -0.65976229
 6 -2.17891495 -1.29445321 -1.26173832
 6 -1.83961889 -1.88099220 0.10755315
 8 -2.47022306 -1.09981274 1.17869203
 6 -0.34148058 -1.66861067 0.26191132
 6 0.56228957 -2.85526042 -0.10135374
 8 0.15146828 -3.35758179 -1.35146638
 7 -0.09097167 3.55239739 -4.67993871
 6 -0.71162407 3.55228413 -3.50945626
 7 -0.99681770 2.55805330 -2.71006943
 6 -0.62423062 1.39957062 -3.25475924
 6 0.00842943 1.18890050 -4.47331752
 6 0.25392937 2.39244840 -5.24326782
 7 0.25307166 -0.16279576 -4.74261523
 6 -0.20789178 -0.75461499 -3.65967882
 7 -0.80569395 0.12526231 -2.77758934
 6 1.27902993 -0.36976000 1.30506331
 8 0.76702993 0.94534000 1.43806331
 6 -0.55127007 -0.28736000 -0.10043669
 6 -0.18127007 1.12894000 0.45076331
 6 -1.34427007 2.03924000 0.97736331
 8 -2.11267007 1.17074000 1.96536331
 7 1.46612993 -0.88726000 2.72156331
 6 2.64272993 -1.47526000 3.00066331
 8 3.47972993 -1.70456000 2.18956331
 7 2.82992993 -1.82866000 4.33056331
 6 1.90742993 -1.61186000 5.37396331
 6 0.64522993 -1.01586000 5.00396331
 6 0.50192993 -0.68336000 3.70886331
 6 -0.33697007 -0.73586000 6.07266331
 8 0.15012993 -0.19196000 -1.46433669
 6 -0.00147007 -1.18186000 0.90896331
 1 -1.70136020 0.72663728 -0.94546027
 1 -1.96826082 -2.11414106 -2.07829124
 1 -3.23686770 -1.06598269 -1.34952094
 1 -2.10013217 -2.96348897 0.15134224
 1 -0.13365597 -1.38611164 1.28760037
 1 1.61611013 -2.55422458 -0.22805222
 1 0.50930975 -3.66350743 0.62302818
 1 1.02773842 -4.10870050 -1.41092873
 1 -0.12385770 -1.82164080 -3.46318037
 1 2.17582993 -0.54806000 0.63346331
 1 -0.82197007 -1.17786000 1.57686331
 1 0.04232993 -2.01556000 0.25226331
 1 -1.65347007 -0.35636000 -0.19583669
 1 0.26502993 1.72294000 -0.41073669
 1 -0.99427007 2.95824000 1.40436331
 1 -2.03967007 2.32034000 0.09726331
 1 -0.46237007 -0.18346000 3.38726331
 8 -2.36930050 -0.57372653 3.73496391
 1 1.00982993 0.22094000 -1.35393669
 8 0.86774103 2.32007885 -6.53286441
 7 -1.15085054 4.89866279 -3.11546758
 1 -1.64504515 5.03195203 -2.25645675
 1 -0.95555499 5.68052621 -3.70589713
 1 0.11777825 4.41616384 -5.13856794
 7 2.24242993 -1.84036000 6.60236331
 1 3.12542993 -2.26136000 6.80986331
 1 1.61832993 -1.59596000 7.34446331
 1 0.07892993 -0.03326000 6.76416331
 1 -1.22687007 -0.32756000 5.64106331
 1 -0.57397007 -1.64416000 6.58616331

