%nprocshared=16
%mem=32GB
#p opt=(calcfc,ts,noeigentest) freq=noraman m062x/6-31g(d)

title

0 1
 C                 -1.00059000    0.22102200    0.46554300
 C                 -1.87971400   -0.29850600   -0.66398300
 H                 -1.39334400    0.01663000    1.47216100
 H                 -2.76961000    0.33889700   -0.74028600
 H                 -1.35288400   -0.24267800   -1.62147000
 H                 -2.20800500   -1.32901100   -0.49137200
 O                 -0.44394200    1.38313300    0.31489500
 C                  0.42919800   -1.13551800    0.69480600
 C                  1.24484400   -0.73643600   -0.36948600
 H                 -0.08014300   -2.09469800    0.64397800
 H                  0.73162000   -0.83862900    1.69721800
 C                  1.87888800    0.52269500   -0.34339400
 H                  1.09139900   -1.21477800   -1.33701400
 H                  2.42512700    0.84453700   -1.22842800
 H                  0.73703600    1.17519100   -0.21140000
 H                  2.33457800    0.83993700    0.59653400

