%nprocshared=16GB
%mem=32GB
#p opt freq=noraman b3lyp/6-31g(d)

title

0 1
15 -0.12508299 -1.40282235 -1.61743509
 8 -0.43529210 -1.54508978 -3.06414147
 6 -2.92027659 1.67986708 0.33128010
 8 -1.85621758 2.56658467 -0.03655199
 6 -3.11981206 0.78009977 -0.88097682
 6 -1.73878983 0.72535391 -1.53204472
 8 -0.88295314 -0.25633977 -0.85450316
 6 -1.12013904 2.08552050 -1.24819828
 6 -1.23614784 3.13900168 -2.35888230
 8 -2.57209535 3.16678199 -2.80425294
 7 -5.51716408 3.46303132 4.27558632
 6 -4.59690887 2.51593924 4.16888335
 7 -3.96760088 2.07144263 3.11283228
 6 -4.41895707 2.67403701 2.01249240
 6 -5.39009295 3.66220534 1.91277590
 6 -5.99484814 4.04514058 3.17343168
 7 -5.62751267 4.07286470 0.59579275
 6 -4.76610731 3.34620382 -0.08643400
 7 -4.07557483 2.44643178 0.70300157
 6 4.73072711 -2.64139477 -2.01643671
 8 4.21872711 -1.32629477 -1.88343671
 6 2.90042711 -2.55899477 -3.42193671
 6 3.27042711 -1.14269477 -2.87073671
 6 2.10742711 -0.23239477 -2.34413671
 8 1.33902711 -1.10089477 -1.35613671
 7 4.91782711 -3.15889477 -0.59993671
 6 6.09442711 -3.74689477 -0.32083671
 8 6.93142711 -3.97619477 -1.13193671
 7 6.28162711 -4.10029477 1.00906329
 6 5.35912711 -3.88349477 2.05246329
 6 4.09692711 -3.28749477 1.68246329
 6 3.95362711 -2.95499477 0.38736329
 6 3.11472711 -3.00749477 2.75116329
 8 3.60182711 -2.46359477 -4.78583671
 6 3.45022711 -3.45349477 -2.41253671
 1 -2.58624400 0.99321775 1.13961294
 1 -3.86518387 1.28797320 -1.63563400
 1 -3.52052096 -0.21380146 -0.70558782
 1 -1.82348228 0.54154268 -2.62777485
 1 -0.06945179 1.94922546 -1.01903726
 1 -1.01810024 4.15691611 -1.99348075
 1 -0.59846858 2.92469805 -3.21225115
 1 -2.38953946 4.07033260 -3.50127094
 1 -4.59857066 3.44175041 -1.15742409
 1 5.62752711 -2.81969477 -2.68803671
 1 2.62972711 -3.44949477 -1.74463671
 1 3.49402711 -4.28719477 -3.06923671
 1 1.79822711 -2.62799477 -3.51733671
 1 3.71672711 -0.54869477 -3.73223671
 1 2.45742711 0.68660523 -1.91713671
 1 1.41202711 0.04870523 -3.22423671
 1 2.98932711 -2.45509477 0.06576329
 8 -0.35117585 -2.80656978 -0.66737285
 1 4.46152711 -2.05069477 -4.67543671
 8 -7.03345369 5.02730054 3.21492599
 7 -4.30138282 1.88278795 5.46219934
 1 -3.63233254 1.14149852 5.51469349
 1 -4.76892561 2.19314366 6.28872271
 1 -5.85186094 3.74005116 5.17627927
 7 5.69412711 -4.11199477 3.28086329
 1 6.57712711 -4.53299477 3.48836329
 1 5.07002711 -3.86759477 4.02296329
 1 3.53062711 -2.30489477 3.44266329
 1 2.22482711 -2.59919477 2.31956329
 1 2.87772711 -3.91579477 3.26466329

