%nprocshared=16GB
%mem=32GB
#p opt freq=noraman b3lyp/6-31g(d)

title

0 1
15 1.23097928 -0.22865330 0.45284419
 8 2.03770441 -0.90621952 -0.59573944
 6 -3.09704372 0.34331689 -0.97577784
 8 -2.56416241 1.59343316 -1.43079097
 6 -2.04895468 -0.69356727 -1.35701665
 6 -0.73376167 0.08342095 -1.33121808
 8 -0.22457469 0.19857035 0.04090099
 6 -1.10667579 1.49473948 -1.75837824
 6 -0.89892041 1.84250612 -3.23918737
 8 -1.45753962 0.81065804 -4.01836426
 7 -8.05941224 0.66781224 -0.10937584
 6 -7.01168598 0.65923143 0.70144760
 7 -5.73838204 0.54779406 0.42735190
 6 -5.55701275 0.36152853 -0.88031800
 6 -6.51907043 0.31104166 -1.88102826
 6 -7.88470615 0.44890949 -1.41449555
 7 -5.98064781 0.09458480 -3.15488122
 6 -4.68679483 0.05033643 -2.91100601
 7 -4.38912345 0.13100212 -1.56396550
 6 5.25279622 -0.47614639 0.27642562
 8 4.74079622 0.83895361 0.40942562
 6 3.42249622 -0.39374639 -1.12907438
 6 3.79249622 1.02255361 -0.57787438
 6 2.62949622 1.93285361 -0.05127438
 8 1.86109622 1.06435361 0.93672562
 7 5.43989622 -0.99364639 1.69292562
 6 6.61649622 -1.58164639 1.97202562
 8 7.45349622 -1.81094639 1.16092562
 7 6.80369622 -1.93504639 3.30192562
 6 5.88119622 -1.71824639 4.34532562
 6 4.61899622 -1.12224639 3.97532562
 6 4.47569622 -0.78974639 2.68022562
 6 3.63679622 -0.84224639 5.04402562
 8 4.12389622 -0.29834639 -2.49297438
 6 3.97229622 -1.28824639 -0.11967438
 1 -3.12552863 0.31939138 0.13556515
 1 -2.23797488 -1.06536245 -2.45659008
 1 -1.99453373 -1.59487054 -0.75380909
 1 0.00729690 -0.36715432 -2.03078796
 1 -0.53973342 2.20036068 -1.16196406
 1 -1.43167483 2.76361959 -3.53062443
 1 0.14973137 1.93994380 -3.50683379
 1 -1.26953017 1.37027572 -5.01186562
 1 -3.92186601 -0.03041275 -3.68079879
 1 6.14959622 -0.65444639 -0.39517438
 1 3.15179622 -1.28424639 0.54822562
 1 4.01609622 -2.12194639 -0.77637438
 1 2.32029622 -0.46274639 -1.22447438
 1 4.23879622 1.61655361 -1.43937438
 1 2.97949622 2.85185361 0.37572562
 1 1.93409622 2.21395361 -0.93137438
 1 3.51139622 -0.28984639 2.35862562
 8 1.05380925 -1.08422809 1.92282570
 1 4.98359622 0.11455361 -2.38257438
 8 -8.97887559 0.38148652 -2.33281403
 7 -7.40405799 0.76264167 2.11432869
 1 -6.70507066 0.75315559 2.82932566
 1 -8.36906209 0.84246658 2.36020033
 1 -8.97547148 0.83720282 0.25415141
 7 6.21619622 -1.94674639 5.57372562
 1 7.09919622 -2.36774639 5.78122562
 1 5.59209622 -1.70234639 6.31582562
 1 4.05269622 -0.13964639 5.73552562
 1 2.74689622 -0.43394639 4.61242562
 1 3.39979622 -1.75054639 5.55752562

