%nprocshared=16GB
%mem=32GB
#p opt freq=noraman b3lyp/6-31g(d)

title

0 1
15 -1.39736006 -0.39260914 1.45334530
 8 -1.70756917 -0.53487657 0.00663892
 6 -2.35948936 1.41999429 -0.75360946
 8 -3.58810224 0.71758723 -0.52794419
 6 -2.25708809 2.41350271 0.39591977
 6 -3.01106691 1.73556712 1.53873567
 8 -2.15523021 0.75387345 2.21627723
 6 -4.10977488 0.93326834 0.85865612
 6 -5.49383654 1.59273815 0.77882797
 8 -5.32975702 2.90936217 0.30611073
 7 -0.76540876 0.85222503 -5.50940551
 6 -0.38360946 0.29645158 -4.36897412
 7 -0.81481636 0.49669638 -3.15126632
 6 -1.73613522 1.46028083 -3.13493230
 6 -2.24577396 2.17794247 -4.20952760
 6 -1.66339403 1.83971730 -5.49329494
 7 -3.20458221 3.12676854 -3.83553605
 6 -3.28794366 2.94611507 -2.53326735
 7 -2.38184138 2.01681396 -2.05891364
 6 3.45845003 -1.63118156 1.05434368
 8 2.94645003 -0.31608156 1.18734368
 6 1.62815003 -1.54878156 -0.35115632
 6 1.99815003 -0.13248156 0.20004368
 6 0.83515003 0.77781844 0.72664368
 8 0.06675003 -0.09068156 1.71464368
 7 3.64555003 -2.14868156 2.47084368
 6 4.82215003 -2.73668156 2.74994368
 8 5.65915003 -2.96598156 1.93884368
 7 5.00935003 -3.09008156 4.07984368
 6 4.08685003 -2.87328156 5.12324368
 6 2.82465003 -2.27728156 4.75324368
 6 2.68135003 -1.94478156 3.45814368
 6 1.84245003 -1.99728156 5.82194368
 8 2.32955003 -1.45338156 -1.71505632
 6 2.17795003 -2.44328156 0.65824368
 1 -1.49422979 0.73598070 -0.61247710
 1 -2.82274936 3.40590377 0.11629593
 1 -1.26247246 2.72519211 0.70048184
 1 -3.43736836 2.49209028 2.23696464
 1 -4.21592826 -0.01599186 1.37117083
 1 -6.15442665 1.09062259 0.05170106
 1 -5.99602110 1.63802969 1.74140711
 1 -6.46815218 3.09748377 0.24106318
 1 -3.99824436 3.46031041 -1.88883463
 1 4.35525003 -1.80948156 0.38274368
 1 1.35745003 -2.43928156 1.32614368
 1 2.22175003 -3.27698156 0.00154368
 1 0.52595003 -1.61778156 -0.44655632
 1 2.44445003 0.46151844 -0.66145632
 1 1.18515003 1.69681844 1.15364368
 1 0.13975003 1.05891844 -0.15345632
 1 1.71705003 -1.44488156 3.13654368
 8 -1.62345292 -1.79635657 2.40340754
 1 3.18925003 -1.04048156 -1.60465632
 8 -2.06995589 2.52444817 -6.68111334
 7 0.71628252 -0.65991159 -4.55999652
 1 1.10550531 -1.13802163 -3.77271616
 1 1.07487546 -0.83225034 -5.47638522
 1 -0.38316518 0.53390091 -6.37691307
 7 4.42185003 -3.10178156 6.35164368
 1 5.30485003 -3.52278156 6.55914368
 1 3.79775003 -2.85738156 7.09374368
 1 2.25835003 -1.29468156 6.51344368
 1 0.95255003 -1.58898156 5.39034368
 1 1.60545003 -2.90558156 6.33544368

