%nprocshared=16
%mem=32GB
#p opt b3lyp/6-31g(d)

title

0 1
15 -2.40875629 1.86892027 0.22348225
 8 -0.93044066 1.72491999 0.16624695
 6 -0.81531702 -0.83918953 -0.68937906
 8 -1.89341602 -1.77138472 -0.83939492
 6 -1.07886491 0.23872777 -1.73225933
 6 -2.59884614 0.24021593 -1.88641433
 8 -3.22945031 1.02139540 -0.81527544
 6 -3.01559894 -1.20356755 -1.65155886
 6 -3.22214659 -2.07157052 -2.90088209
 8 -2.11185010 -1.89629519 -3.74964754
 7 3.03798389 -2.88039520 1.85357247
 6 2.08686539 -2.02919756 2.20864256
 7 1.11900276 -1.50820052 1.50107372
 6 1.20806925 -1.89873437 0.22940525
 6 2.14034144 -2.75588056 -0.34129075
 6 3.15015901 -3.24775356 0.57519746
 7 1.94575597 -2.94922535 -1.71395536
 6 0.86947235 -2.22754928 -1.95120165
 7 0.43606330 -1.52554220 -0.84260975
 6 0.51980269 1.75144814 -0.68890416
 8 0.00780269 3.06654814 -0.55590416
 6 -1.31049731 1.83384814 -2.09440416
 6 -0.94049731 3.25014814 -1.54320416
 6 -2.10349731 4.16044814 -1.01660416
 8 -2.87189731 3.29194814 -0.02860416
 7 0.70690269 1.23394814 0.72759584
 6 1.88350269 0.64594814 1.00669584
 8 2.72050269 0.41664814 0.19559584
 7 2.07070269 0.29254814 2.33659584
 6 1.14820269 0.50934814 3.37999584
 6 -0.11399731 1.10534814 3.00999584
 6 -0.25729731 1.43784814 1.71489584
 6 -1.09619731 1.38534814 4.07869584
 8 -0.60909731 1.92924814 -3.45830416
 6 -0.76069731 0.93934814 -1.08500416
 1 -0.89576588 -0.31238017 0.28656506
 1 -0.60264425 -0.07666324 -2.76024980
 1 -0.69493883 1.23426879 -1.53059762
 1 -2.89432004 0.58485154 -2.90401217
 1 -3.93518988 -1.21163900 -1.07769288
 1 -3.25244421 -3.14806701 -2.66119436
 1 -4.11827001 -1.80669715 -3.45550283
 1 -2.46919997 -2.70637358 -4.49237126
 1 0.35939257 -2.18779118 -2.91164705
 1 1.41660269 1.57314814 -1.36050416
 1 -1.58119731 0.94334814 -0.41710416
 1 -0.71689731 0.10564814 -1.74170416
 1 -2.41269731 1.76484814 -2.18980416
 1 -0.49419731 3.84414814 -2.40470416
 1 -1.75349731 5.07944814 -0.58960416
 1 -2.79889731 4.44154814 -1.89670416
 1 -1.22159731 1.93774814 1.39329584
 8 -3.12852774 1.54748160 1.74099644
 1 0.25060269 2.34214814 -3.34790416
 8 4.19274248 -4.11188374 0.11545819
 7 2.20727361 -1.61955683 3.61526220
 1 1.55643985 -0.96718568 4.00349054
 1 2.93930118 -1.99298321 4.18336974
 1 3.66798277 -3.24537598 2.53906515
 7 1.48320269 0.28084814 4.60839584
 1 2.36620269 -0.14015186 4.81589584
 1 0.85910269 0.52524814 5.35049584
 1 -0.68029731 2.08794814 4.77019584
 1 -1.98609731 1.79364814 3.64709584
 1 -1.33319731 0.47704814 4.59219584

