%nprocshared=16
%mem=32GB
#p opt b3lyp/6-31g(d)

title

0 1
15 -3.49850638 1.95978388 -1.30168931
 8 -3.59842301 3.43623504 -1.16191204
 6 -0.10904684 0.32698291 1.33372696
 8 0.64581216 0.53236178 0.13297822
 6 -0.97074882 1.57453491 1.47531141
 6 -1.18680266 2.03987148 0.03625216
 8 -2.26835575 1.27779343 -0.59992505
 6 0.08746062 1.64732149 -0.69553220
 6 1.15418176 2.74005830 -0.85343051
 8 1.34491829 3.35609937 0.39876575
 7 1.94823230 -3.28104982 4.20265591
 6 0.89820626 -3.27506838 3.39478951
 7 0.38800007 -2.30112400 2.68770279
 6 1.04729474 -1.16468063 2.91445651
 6 2.14549916 -0.96031108 3.74011083
 6 2.59036219 -2.13890131 4.45749720
 7 2.58992533 0.36703096 3.75022798
 6 1.76939931 0.94626692 2.89775433
 7 0.78831685 0.09316170 2.42943604
 6 0.01071525 -0.02868907 -3.40717594
 8 -0.50128475 1.28641093 -3.27417594
 6 -1.81958475 0.05371093 -4.81267594
 6 -1.44958475 1.47001093 -4.26147594
 6 -2.61258475 2.38031093 -3.73487594
 8 -3.38098475 1.51181093 -2.74687594
 7 0.19781525 -0.54618907 -1.99067594
 6 1.37441525 -1.13418907 -1.71157594
 8 2.21141525 -1.36348907 -2.52267594
 7 1.56161525 -1.48758907 -0.38167594
 6 0.63911525 -1.27078907 0.66172406
 6 -0.62308475 -0.67478907 0.29172406
 6 -0.76638475 -0.34228907 -1.00337594
 6 -1.60528475 -0.39478907 1.36042406
 8 -1.11818475 0.14911093 -6.17657594
 6 -1.26978475 -0.84078907 -3.80327594
 1 -0.83587530 -0.50280014 1.19355734
 1 -0.37235803 2.40902966 2.04852078
 1 -1.91043942 1.47524384 2.01037351
 1 -1.35225532 3.14103723 -0.00428549
 1 -0.17540717 1.28538687 -1.68292202
 1 2.13625318 2.32679466 -1.13972015
 1 0.87022578 3.50693387 -1.56902127
 1 2.22436622 4.00299748 0.01974252
 1 1.85084595 1.98364947 2.57928715
 1 0.90751525 -0.20698907 -4.07877594
 1 -2.09028475 -0.83678907 -3.13537594
 1 -1.22598475 -1.67448907 -4.45997594
 1 -2.92178475 -0.01528907 -4.90807594
 1 -1.00328475 2.06401093 -5.12297594
 1 -2.26258475 3.29931093 -3.30787594
 1 -3.30798475 2.66141093 -4.61497594
 1 -1.73068475 0.15761093 -1.32497594
 8 -4.86520236 1.07037216 -0.78658543
 1 -0.25848475 0.56201093 -6.06617594
 8 3.68981703 -2.06550439 5.36901977
 7 0.22607439 -4.58165616 3.35063542
 1 -0.59048270 -4.70505572 2.78680831
 1 0.58513053 -5.34636630 3.88388480
 1 2.25778291 -4.13595933 4.61897059
 7 0.97411525 -1.49928907 1.89012406
 1 1.85711525 -1.92028907 2.09762406
 1 0.35001525 -1.25488907 2.63222406
 1 -1.18938475 0.30781093 2.05192406
 1 -2.49518475 0.01351093 0.92882406
 1 -1.84228475 -1.30308907 1.87392406

