%nprocshared=16
%mem=32GB
#p opt b3lyp/6-31g(d)

title

0 1
15 0.64662417 -0.11988682 -0.74289221
 8 0.32843793 -0.25401030 -2.18864373
 6 -3.14384532 1.23522922 -0.02788524
 8 -2.79364970 2.32852834 0.82993185
 6 -2.20233113 1.35214741 -1.21903746
 6 -0.95454554 2.01697269 -0.64011830
 8 -0.10093745 1.02747831 0.02883280
 6 -1.47448683 2.93121982 0.45859184
 6 -1.68203506 4.40582006 0.08525891
 8 -2.39438341 4.45862268 -1.12868269
 7 -7.70147461 -0.60964113 1.11470815
 6 -6.47533421 -1.04064056 1.37172530
 7 -5.31880679 -0.53593645 1.03030514
 6 -5.48783009 0.54058649 0.26211265
 6 -6.68032214 1.12828661 -0.14049910
 6 -7.87515564 0.44812955 0.31926225
 7 -6.49546472 2.25238918 -0.95393318
 6 -5.18279906 2.35101464 -1.00560953
 7 -4.53844939 1.31374247 -0.35868351
 6 5.50540143 -1.36789079 -1.14787697
 8 4.99340143 -0.05279079 -1.01487697
 6 3.67510143 -1.28549079 -2.55337697
 6 4.04510143 0.13080921 -2.00217697
 6 2.88210143 1.04110921 -1.47557697
 8 2.11370143 0.17260921 -0.48757697
 7 5.69250143 -1.88539079 0.26862303
 6 6.86910143 -2.47339079 0.54772303
 8 7.70610143 -2.70269079 -0.26337697
 7 7.05630143 -2.82679079 1.87762303
 6 6.13380143 -2.60999079 2.92102303
 6 4.87160143 -2.01399079 2.55102303
 6 4.72830143 -1.68149079 1.25592303
 6 3.88940143 -1.73399079 3.61972303
 8 4.37650143 -1.19009079 -3.91727697
 6 4.22490143 -2.17999079 -1.54397697
 1 -2.87318322 0.26892301 0.45113603
 1 -2.66624547 2.07288441 -2.02423537
 1 -1.95882369 0.43996083 -1.75549656
 1 -0.41319833 2.59546282 -1.42362087
 1 -0.79225397 2.88758843 1.29983463
 1 -2.30342149 4.94019532 0.82386223
 1 -0.74701010 4.94357748 -0.04643974
 1 -2.49757204 5.60913758 -1.09358276
 1 -4.64945076 3.16420830 -1.49394663
 1 6.40220143 -1.54619079 -1.81947697
 1 3.40440143 -2.17599079 -0.87607697
 1 4.26870143 -3.01369079 -2.20067697
 1 2.57290143 -1.35449079 -2.64877697
 1 4.49140143 0.72480921 -2.86367697
 1 3.23210143 1.96010921 -1.04857697
 1 2.18670143 1.32220921 -2.35567697
 1 3.76400143 -1.18159079 0.93432303
 8 0.41729259 -1.52651619 0.20211781
 1 5.23620143 -0.77719079 -3.80687697
 8 -9.17226983 0.92442735 -0.04910798
 7 -6.47862499 -2.29804714 2.13317152
 1 -5.61392145 -2.73580936 2.37923239
 1 -7.34477092 -2.71520455 2.40488595
 1 -8.49196689 -1.07394526 1.51414950
 7 6.46880143 -2.83849079 4.14942303
 1 7.35180143 -3.25949079 4.35692303
 1 5.84470143 -2.59409079 4.89152303
 1 4.30530143 -1.03139079 4.31122303
 1 2.99950143 -1.32569079 3.18812303
 1 3.65240143 -2.64229079 4.13322303

