%nprocshared=16GB
%mem=32GB
#p opt freq=noraman b3lyp/6-31g(d)

title

0 1
15 -4.10029138 1.50712518 0.26363505
 8 -4.20020800 2.98357635 0.40341232
 6 0.14845169 0.42865876 0.77416076
 8 -0.03854388 1.61768875 -0.00367627
 6 -0.65963012 0.65795880 2.04435276
 6 -1.78858766 1.58721279 1.60157651
 8 -2.87014075 0.82513474 0.96539931
 6 -1.17918386 2.44450018 0.50292457
 6 -0.65367017 3.82537477 0.91996215
 8 0.14287618 3.66636835 2.07066340
 7 4.14720651 -2.20376879 -0.82625669
 6 2.84400654 -2.37024469 -0.99711977
 7 1.84043011 -1.66947907 -0.53819543
 6 2.27794208 -0.69381959 0.25821030
 6 3.59042240 -0.37588231 0.58353509
 6 4.58753822 -1.24897307 -0.00391175
 7 3.69508107 0.71307524 1.45684597
 6 2.43621898 1.06391727 1.62317296
 7 1.55117789 0.21276117 0.98924166
 6 -0.59106975 -0.48134776 -1.84185158
 8 -1.10306975 0.83375224 -1.70885158
 6 -2.42136975 -0.39894776 -3.24735158
 6 -2.05136975 1.01735224 -2.69615158
 6 -3.21436975 1.92765224 -2.16955158
 8 -3.98276975 1.05915224 -1.18155158
 7 -0.40396975 -0.99884776 -0.42535158
 6 0.77263025 -1.58684776 -0.14625158
 8 1.60963025 -1.81614776 -0.95735158
 7 0.95983025 -1.94024776 1.18364842
 6 0.03733025 -1.72344776 2.22704842
 6 -1.22486975 -1.12744776 1.85704842
 6 -1.36816975 -0.79494776 0.56194842
 6 -2.20706975 -0.84744776 2.92574842
 8 -1.71996975 -0.30354776 -4.61125158
 6 -1.87156975 -1.29344776 -2.23795158
 1 -0.34485589 -0.43611470 0.27890169
 1 -0.00246474 1.22538311 2.83756479
 1 -1.04025886 -0.21859546 2.56004938
 1 -2.14359983 2.21373404 2.45188315
 1 -1.91682930 2.58476742 -0.27889325
 1 0.00554290 4.26986247 0.15505583
 1 -1.44978821 4.52734684 1.15283664
 1 0.47129286 4.77437450 2.07607589
 1 2.11409049 1.93588477 2.18896742
 1 0.30573025 -0.65964776 -2.51345158
 1 -2.69206975 -1.28944776 -1.57005158
 1 -1.82776975 -2.12714776 -2.89465158
 1 -3.52356975 -0.46794776 -3.34275158
 1 -1.60506975 1.61135224 -3.55765158
 1 -2.86436975 2.84665224 -1.74255158
 1 -3.90976975 2.20875224 -3.04965158
 1 -2.33246975 -0.29504776 0.24034842
 8 -5.46698736 0.61771347 0.77873893
 1 -0.86026975 0.10935224 -4.50085158
 8 5.97740032 -1.05858728 0.27375358
 7 2.53914658 -3.55713617 -1.80905048
 1 1.58851745 -3.80172695 -1.99976896
 1 3.28171788 -4.11936180 -2.17036475
 1 4.79695933 -2.78983784 -1.31035805
 7 0.37233025 -1.95194776 3.45544842
 1 1.25533025 -2.37294776 3.66294842
 1 -0.25176975 -1.70754776 4.19754842
 1 -1.79116975 -0.14484776 3.61724842
 1 -3.09696975 -0.43914776 2.49414842
 1 -2.44406975 -1.75574776 3.43924842

