%nprocshared=16
%mem=32GB
#p opt b3lyp/6-31g(d)

title

0 1
15 -1.39516856 -0.39937936 1.44909835
 8 -1.71335480 -0.53350284 0.00334683
 6 -2.35794431 1.42835709 -0.74505652
 8 -3.58938538 0.73191144 -0.51635045
 6 -2.24420788 2.41618570 0.40829560
 6 -2.99633827 1.73748015 1.55187226
 8 -2.14273017 0.74798577 2.22082336
 6 -4.10293927 0.94441099 0.87376733
 6 -5.48361833 1.61203418 0.80373716
 8 -5.31442355 2.92978490 0.33598865
 7 -0.79072889 0.87259800 -5.51118898
 6 -0.40643254 0.30964656 -4.37512535
 7 -0.83044890 0.50694496 -3.15441526
 6 -1.74619666 1.47563658 -3.12925897
 6 -2.25708415 2.20090344 -4.19814010
 6 -1.68300927 1.86506601 -5.48626760
 7 -3.20862905 3.15346954 -3.81521193
 6 -3.28655005 2.96754128 -2.51334882
 7 -2.38338903 2.03105139 -2.04760191
 6 3.46360870 -1.64738333 1.04411359
 8 2.95160870 -0.33228333 1.17711359
 6 1.63330870 -1.56498333 -0.36138641
 6 2.00330870 -0.14868333 0.18981359
 6 0.84030870 0.76161667 0.71641359
 8 0.07190870 -0.10688333 1.70441359
 7 3.65070870 -2.16488333 2.46061359
 6 4.82730870 -2.75288333 2.73971359
 8 5.66430870 -2.98218333 1.92861359
 7 5.01450870 -3.10628333 4.06961359
 6 4.09200870 -2.88948333 5.11301359
 6 2.82980870 -2.29348333 4.74301359
 6 2.68650870 -1.96098333 3.44791359
 6 1.84760870 -2.01348333 5.81171359
 8 2.33470870 -1.46958333 -1.72528641
 6 2.18310870 -2.45948333 0.64801359
 1 -1.49588757 0.73885049 -0.61124372
 1 -2.80561342 3.41299109 0.13585321
 1 -1.24634171 2.72090419 0.70925796
 1 -3.41487291 2.49330871 2.25553115
 1 -4.21192896 -0.00648827 1.38263533
 1 -6.15064521 1.11687357 0.07771790
 1 -5.98075505 1.65591078 1.76899836
 1 -6.45204246 3.12461909 0.27744551
 1 -3.99071693 3.48288996 -1.86313178
 1 4.36040870 -1.82568333 0.37251359
 1 1.36260870 -2.45548333 1.31591359
 1 2.22690870 -3.29318333 -0.00868641
 1 0.53110870 -1.63398333 -0.45678641
 1 2.44960870 0.44531667 -0.67168641
 1 1.19030870 1.68061667 1.14341359
 1 0.14490870 1.04271667 -0.16368641
 1 1.72220870 -1.46108333 3.12631359
 8 -1.62450014 -1.80600873 2.39410837
 1 3.19440870 -1.05668333 -1.61488641
 8 -2.09157140 2.55732068 -6.66902790
 7 0.68705733 -0.65206128 -4.57582510
 1 1.07746485 -1.13583386 -3.79260099
 1 1.04011532 -0.82237469 -5.49473815
 1 -0.41460615 0.55595354 -6.38198042
 7 4.42700870 -3.11798333 6.34141359
 1 5.31000870 -3.53898333 6.54891359
 1 3.80290870 -2.87358333 7.08351359
 1 2.26350870 -1.31088333 6.50321359
 1 0.95770870 -1.60518333 5.38011359
 1 1.61060870 -2.92178333 6.32521359

