%nprocshared=16
%mem=32GB
#p opt b3lyp/6-31g(d)

title

0 1
15 -2.36665228 2.46983946 -0.80992090
 8 -1.34165753 3.40284788 -0.27297574
 6 -0.19325731 -0.71300852 0.55428820
 8 -0.29772561 -1.52856925 -0.61948230
 6 0.19078924 0.66831574 0.04104946
 6 -0.41851979 0.72514181 -1.35881561
 8 -1.84449400 1.06770754 -1.29182486
 6 -0.35615037 -0.70628540 -1.86918503
 6 0.83806422 -1.06568558 -2.76449651
 8 2.01251366 -0.59618887 -2.14471925
 7 0.23694781 -3.53324474 4.71868997
 6 -0.78133244 -2.86730708 4.19440860
 7 -0.83579742 -2.12638231 3.11880937
 6 0.36888820 -2.03232649 2.55535901
 6 1.55600815 -2.62609853 2.96487813
 6 1.45096671 -3.41515202 4.17648124
 7 2.64383042 -2.31172855 2.14191513
 6 2.08958418 -1.55313477 1.21842440
 7 0.75332896 -1.29790316 1.46114267
 6 0.30560904 1.48187740 -2.68684134
 8 -0.20639096 2.79697740 -2.55384134
 6 -1.52469096 1.56427740 -4.09234134
 6 -1.15469096 2.98057740 -3.54114134
 6 -2.31769096 3.89087740 -3.01454134
 8 -3.08609096 3.02237740 -2.02654134
 7 0.49270904 0.96437740 -1.27034134
 6 1.66930904 0.37637740 -0.99124134
 8 2.50630904 0.14707740 -1.80234134
 7 1.85650904 0.02297740 0.33865866
 6 0.93400904 0.23977740 1.38205866
 6 -0.32819096 0.83577740 1.01205866
 6 -0.47149096 1.16827740 -0.28304134
 6 -1.31039096 1.11577740 2.08075866
 8 -0.82329096 1.65967740 -5.45624134
 6 -0.97489096 0.66977740 -3.08294134
 1 -1.19530166 -0.57336222 1.01566991
 1 1.35992414 0.74466887 -0.06051722
 1 -0.10244761 1.52429463 0.64145007
 1 0.16083940 1.41335328 -2.01630462
 1 -1.26670670 -0.92072133 -2.41685210
 1 0.96739087 -2.15622157 -2.87041495
 1 0.77420472 -0.61879020 -3.75293252
 1 2.70188526 -1.08415833 -2.93352660
 1 2.61474532 -1.16992623 0.34574207
 1 1.20240904 1.30357740 -3.35844134
 1 -1.79539096 0.67377740 -2.41504134
 1 -0.93109096 -0.16392260 -3.73964134
 1 -2.62689096 1.49527740 -4.18774134
 1 -0.70839096 3.57457740 -4.40264134
 1 -1.96769096 4.80987740 -2.58754134
 1 -3.01309096 4.17197740 -3.89464134
 1 -1.43579096 1.66817740 -0.60464134
 8 -3.68118671 2.13148233 0.23015448
 1 0.03640904 2.07257740 -5.34584134
 8 2.60300861 -4.05542078 4.73138378
 7 -2.00098931 -2.99216239 5.00541459
 1 -2.83845568 -2.52361479 4.72433247
 1 -1.99320778 -3.54518910 5.83737536
 1 0.09689394 -4.12070966 5.51573430
 7 1.26900904 0.01127740 2.61045866
 1 2.15200904 -0.40972260 2.81795866
 1 0.64490904 0.25567740 3.35255866
 1 -0.89449096 1.81837740 2.77225866
 1 -2.20029096 1.52407740 1.64915866
 1 -1.54739096 0.20747740 2.59425866

