%nprocshared=16
%mem=32GB
#p opt b3lyp/6-31g(d)

title

0 1
15 -1.57147202 -1.02794136 0.75944483
 8 -2.34297913 -0.08505615 -0.09212624
 6 -1.61042887 1.94929582 0.29424120
 8 -2.79856629 1.86030480 1.09060807
 6 -0.46147293 1.83920171 1.28759008
 6 -1.03441939 0.99292482 2.42322061
 8 -0.97618133 -0.43518328 2.08802357
 6 -2.51180814 1.35149095 2.46908525
 6 -2.92994063 2.41427580 3.49502540
 8 -2.04868856 3.50737150 3.38358453
 7 -2.59308982 3.88917214 -4.26122894
 6 -2.37409301 2.64937182 -3.84870724
 7 -2.09783132 2.19838769 -2.65323979
 6 -1.98055264 3.20717432 -1.78941950
 6 -2.14226667 4.56564245 -2.03012230
 6 -2.44439764 4.90405035 -3.40700944
 7 -1.94069382 5.35628834 -0.89271238
 6 -1.69090181 4.45634175 0.03636708
 7 -1.63128339 3.16896844 -0.46238031
 6 3.03100759 -3.14643526 -0.61007395
 8 2.51900759 -1.83133526 -0.47707395
 6 1.20070759 -3.06403526 -2.01557395
 6 1.57070759 -1.64773526 -1.46437395
 6 0.40770759 -0.73743526 -0.93777395
 8 -0.36069241 -1.60593526 0.05022605
 7 3.21810759 -3.66393526 0.80642605
 6 4.39470759 -4.25193526 1.08552605
 8 5.23170759 -4.48123526 0.27442605
 7 4.58190759 -4.60533526 2.41542605
 6 3.65940759 -4.38853526 3.45882605
 6 2.39720759 -3.79253526 3.08882605
 6 2.25390759 -3.46003526 1.79372605
 6 1.41500759 -3.51253526 4.15752605
 8 1.90210759 -2.96863526 -3.37947395
 6 1.75050759 -3.95853526 -1.00617395
 1 -1.51195574 1.04907934 -0.35103424
 1 -0.20037301 2.90355224 1.71421261
 1 0.47870938 1.43699811 0.92227095
 1 -0.53143164 1.23111267 3.38854634
 1 -3.08294021 0.45071415 2.66259004
 1 -3.93729726 2.81630789 3.29299650
 1 -2.89210515 2.05100946 4.51845361
 1 -2.64409425 4.14822356 4.13880976
 1 -1.55434601 4.68779230 1.09088148
 1 3.92780759 -3.32473526 -1.28167395
 1 0.93000759 -3.95453526 -0.33827395
 1 1.79430759 -4.79223526 -1.66287395
 1 0.09850759 -3.13303526 -2.11097395
 1 2.01700759 -1.05373526 -2.32587395
 1 0.75770759 0.18156474 -0.51077395
 1 -0.28769241 -0.45633526 -1.81787395
 1 1.28960759 -2.96013526 1.47212605
 8 -2.39556657 -2.45148920 1.22701603
 1 2.76180759 -2.55573526 -3.26907395
 8 -2.60281857 6.26868421 -3.80417274
 7 -2.43292221 1.68006862 -4.95228002
 1 -2.27073132 0.70952065 -4.77444669
 1 -2.63501259 1.99096360 -5.87994461
 1 -2.86805062 4.06356865 -5.20674054
 7 3.99440759 -4.61703526 4.68722605
 1 4.87740759 -5.03803526 4.89472605
 1 3.37030759 -4.37263526 5.42932605
 1 1.83090759 -2.80993526 4.84902605
 1 0.52510759 -3.10423526 3.72592605
 1 1.17800759 -4.42083526 4.67102605

