%nprocshared=16
%mem=32GB
#p opt freq=noraman b3lyp/genecp empiricaldispersion=gd3bj

title

0 1
 6          1.38206086    2.09031659    0.00029410
 6         -0.02285016    1.54211260    0.00029510
 1          1.44893086    3.20249856    0.00028910
 1         -0.56534612    1.90991060   -0.88062192
 6          0.00000000    0.00000000    0.00000000
 1         -0.56522214    1.90958060    0.88143109
 8          2.38573086    1.41377461    0.00029810
 6         -1.41064667   -0.53147530    0.04373159
 1         -2.00654102   -0.20125695    0.92536983
 1          0.54144745   -0.30804956    0.90417480
 1          0.51860089   -0.36586288   -0.88897535
 8         -1.89838178   -1.26081473   -0.79007945

