%nprocshared=16
%mem=32GB
#p opt freq=noraman b3lyp/genecp empiricaldispersion=gd3bj

title

0 1
 6 0.23402700 0.39962000 -0.00000200
 6 -1.17088400 -0.14858400 -0.00000100
 1 0.30089700 1.51180200 -0.00000700
 1 -1.71338000 0.21921400 -0.88091800
 6 -1.14803390 -1.69069660 -0.00029610
 1 -1.71325600 0.21888400 0.88113500
 8 1.23769700 -0.27692200 0.00000200
 6 -2.55903081 -2.22216284 -0.03085615
 1 -3.20024844 -1.89260995 0.81864679
 1 -0.65464077 -1.99946341 0.93073468
 1 -0.58361953 -2.05588596 -0.86119849
 8 -3.00245668 -2.95084091 -0.88961357

