%nprocshared=4
%mem=3GB
#t b3lyp empiricaldispersion=gd3bj gen NMR pop=none int=finegrid nosymm

title

0 1
 6          0.59510000   -1.21240000    0.00460000
 1          1.58610000   -0.88580000    0.31960000
 1          0.66440000   -1.30900000   -1.07890000
 1          0.35540000   -2.21000000    0.37280000
 6         -0.45060000   -0.13630000    0.30280000
 8         -1.52620000   -0.50290000    0.69280000
 6         -0.33640000    1.26820000   -0.06850000
 1          0.58450000    1.76250000    0.24100000
 1         -0.38840000    1.29700000   -1.15690000
 1         -1.08400000    1.92880000    0.37060000
 8          2.20810000    2.73950000   -2.01080000
 1          2.68410000    2.08890000   -1.41910000
 1          2.60700000    2.71030000   -2.92730000
 8          3.51700000    0.89610000   -0.47130000
 1          3.15730000    1.15160000    0.42620000
 1          3.44260000   -0.09400000   -0.59060000
 8          1.67140000    0.17690000    3.54630000
 1          1.37880000   -0.74510000    3.80000000
 1          1.04730000    0.84700000    3.94800000
 8         -4.29230000    0.36210000    0.34750000
 1         -3.39550000    0.02130000    0.62940000
 1         -4.50800000    1.19450000    0.85800000
 8          0.32330000    4.30920000    1.04150000
 1         -0.44540000    3.72160000    1.29400000
 1          1.14950000    3.99710000    1.51060000
 8         -1.63250000   -1.30720000   -2.66940000
 1         -0.81050000   -1.06210000   -3.18350000
 1         -2.23800000   -0.51350000   -2.61080000
 8          3.42820000   -1.82080000   -1.76800000
 1          4.26450000   -2.34960000   -1.91310000
 1          2.88180000   -2.25150000   -1.04980000
 8         -2.08000000   -2.76430000    2.42250000
 1         -1.75200000   -1.98180000    1.89320000
 1         -1.65160000   -2.75860000    3.32600000
 8          2.81480000    2.42570000    1.82220000
 1          3.49150000    3.15340000    1.93410000
 1          2.82340000    1.83550000    2.62940000
 8          0.31350000    0.04220000   -3.76650000
 1          1.26870000   -0.18790000   -3.95270000
 1          0.15550000    1.00670000   -3.97850000

@/n/jacobsen_lab/ekwan/solvent/basis/pcSseg-1.bas

