%chk=checkpoint.chk
%mem=3GB
%nprocshared=4
#p b3lyp 6-31g* opt

Title Card Required

0 1
 C                 -4.33701634    0.08287293    0.00000000
 H                 -3.98036192   -0.92593708    0.00000000
 H                 -3.98034350    0.58727112   -0.87365150
 H                 -5.40701634    0.08288611    0.00000000
 C                 -3.82367412    0.80882920    1.25740497
 O                 -4.12504449    2.01356291    1.46078432
 C                 -2.93848382    0.05788358    2.26939252
 H                 -3.47481206   -0.78272147    2.65751000
 H                 -2.04831898   -0.28111702    1.78196545
 H                 -2.67728586    0.71572855    3.07183605

--Link1--
%chk=checkpoint.chk
%mem=3GB
%nprocshared=4
#p b3lyp 6-31g* NMR=spinspin geom=allcheck guess=read


