%nprocshared=16
%mem=32GB
#p opt freq=noraman m062x/6-31g(d) scrf=(smd,solvent=diethylether)

title

0 1
 7 2.76438611 -0.53179005 -0.38121658
 1 2.57656511 -1.17759505 -1.14024058
 6 1.64325811 0.23252795 0.08583242
 1 1.67136911 0.29801795 1.18032142
 6 1.72066611 1.66396395 -0.44279458
 6 0.35117211 -0.44583805 -0.38232458
 1 1.60819511 1.73357495 -1.52842458
 8 0.37120111 -1.38613205 -1.16518458
 7 -0.79214189 0.06917295 0.11589642
 1 -0.78627789 0.89952295 0.70010142
 6 -2.07403589 -0.40987105 -0.33774958
 1 -2.06801989 -0.56954205 -1.42168258
 6 -2.40381289 -1.74474805 0.33102342
 6 -3.11871889 0.63739295 0.03209942
 1 -1.56050789 -2.43767305 0.29791142
 8 -2.86184389 1.63533095 0.66094542
 8 -4.32020389 0.30327295 -0.41184658
 6 -5.37630689 1.21498895 -0.07055958
 1 -6.28063989 0.78793595 -0.49988358
 1 -5.46648089 1.29512995 1.01434642
 1 -5.17534289 2.19941695 -0.49768758
 9 -3.47455189 -2.31620805 -0.26769158
 9 -2.73432789 -1.51191105 1.63103442
 9 0.74198511 2.41213995 0.14740142
 9 2.90800911 2.20432195 -0.08976158
 6 3.87721511 -0.70258605 0.39806342
 8 4.02683511 -0.11692205 1.45660842
 6 4.88230311 -1.68987305 -0.14881858
 1 4.67632811 -2.67756905 0.27688142
 1 4.84041211 -1.76490105 -1.23785958
 1 5.88284811 -1.38624505 0.16190342

