%mem=1GB
%chk=test.chk
#p opt freq=noraman m062x/6-31g(d) scrf=(smd,solvent=diethylether)

title

0 1
 7 2.99787600 -0.51206400 -0.44431600
 1 2.80991800 -1.15793000 -1.20325700
 6 1.87680600 0.25250600 0.02252100
 1 1.90476400 0.31802900 1.11700900
 6 1.95458200 1.68396000 -0.50614200
 6 0.58459400 -0.42556600 -0.44586900
 1 1.84214900 1.75364100 -1.59177700
 8 0.60452600 -1.36606000 -1.22851600
 7 -0.55868500 0.08920700 0.05266900
 1 -0.55284000 0.91956900 0.63687100
 6 -1.84058000 -0.39000200 -0.40081900
 1 -1.83468200 -0.54962500 -1.48475700
 6 -2.16988400 -1.72503000 0.26788800
 6 -2.88543400 0.65707000 -0.03069900
 1 -1.32614300 -2.41745300 0.23528600
 8 -2.62870500 1.65476400 0.59860100
 8 -4.08683200 0.32319000 -0.47504100
 6 -5.14300500 1.23478100 -0.13361000
 1 -6.04723700 0.80794600 -0.56336100
 1 -5.23344800 1.31441500 0.95130900
 1 -4.94190600 2.21940200 -0.56022600
 9 -3.23993900 -2.29722700 -0.33135300
 9 -2.50124600 -1.49220600 1.56768800
 9 0.97606700 2.43241000 0.08396200
 9 3.14204700 2.22405600 -0.15310500
 6 4.11060600 -0.68312900 0.33507100
 8 4.26047100 -0.09716100 1.39340900
 6 5.11540300 -1.67082700 -0.21169500
 1 4.90930900 -2.65842000 0.21416200
 1 5.07313700 -1.74598800 -1.30072900
 1 6.11606800 -1.36732700 0.09877200

