%chk=L-Ala.chk
#p hf/3-21g geom=connectivity

title

0 1
 6          1.54000000   -0.00001898    0.00000000
 1          1.89667284    0.50437921    0.87365150
 6          0.00000000    0.00000000    0.00000000
 1         -0.35666635    0.00000483   -1.00880579
 1         -0.35667712   -0.87364712    0.50440275
 1         -0.35665609    0.87365553    0.50440306
 6          2.05331571   -1.45195113    0.00000000
 8          1.85606286   -2.36173360   -0.80433139
 8          2.83999909   -1.71985364    1.07273832
 1          3.14955904   -2.64003683    1.04831694
 7          2.03000848    0.69293928   -1.20025020
 1          1.26573683    0.86304746   -1.82230491
 1          2.44514815    1.56358156   -0.93635426

