%chk=L-Ala.chk
#p hf/3-21g geom=connectivity

title

0 1
 6          1.54000001   -0.00001897    0.00000000
 1          1.89667288    0.50437924    0.87365162
 6          0.00000000    0.00000000    0.00000000
 1         -0.35666216    0.34503684   -0.94796719
 1         -0.35667858   -0.99347535    0.17517707
 1         -0.35665890    0.64845194    0.77279022
 6          2.05331567   -1.45195105    0.00000000
 8          1.85606292   -2.36173370   -0.80433121
 8          2.83999925   -1.71985366    1.07273829
 1          3.14955907   -2.64003684    1.04831707
 7          2.03000854    0.69293931   -1.20025009
 1          1.26573669    0.86304782   -1.82230453
 1          2.44514824    1.56358158   -0.93635424

