#p hf/sto-3g

title

0 1
   C            0.0073293454       0.0025407821      -0.0081940867
   H            0.5744416866       0.5757139319       0.6754784436
   H           -0.6376757688      -0.6555328380       0.7597691638
   H           -0.6190199611       0.6413481532      -0.6913898112
   H            0.5949791917      -0.5917801823      -0.6462942546
