%nprocshared=16
%mem=32GB
#p opt freq=noraman b3lyp/genecp empiricaldispersion=gd3bj

title

0 1
 6 0.23402700 0.39962000 -0.00000200
 6 -1.17088400 -0.14858400 -0.00000100
 1 -2.12193010 0.18136629 -1.06572699
 6 -1.71338000 0.21921400 -0.88091800
 1 -1.15470100 -1.24074600 -0.00021000
 1 -1.71325600 0.21888400 0.88113500
 8 1.23769700 -0.27692200 0.00000200
 6 -1.33596704 0.13760622 0.88200045
 1 -1.98153228 1.15037660 -0.98362616
 1 -1.60022972 0.98185620 1.53238437
 1 -0.26415749 0.23119329 0.66275968
 8 -2.87395974 -0.65157347 -0.80011339

