%nprocshared=4
%mem=8GB
#p opt wB97X-D/gen

title

0 1
 6          0.00000000    0.00000000    0.53874803
 1          0.00000000    0.70710701    1.24585497
 1          0.00000000   -0.70710701    1.24585497
17          0.00000000    0.70710701   -0.16835900
17          0.00000000   -0.70710701   -0.16835900

H     0
S   4   1.00
      0.754732D+02           0.427821D-02
      0.113575D+02           0.328672D-01
      0.260081D+01           0.159578D+00
      0.735503D+00           0.500000D+00
S   1   1.00
      0.231761D+00           1.0000000
S   1   1.00
      0.741675D-01           1.0000000
P   1   1.00
      0.160000D+01           1.0000000
P   1   1.00
      0.450000D+00           1.0000000
D   1   1.00
      0.125000D+01           1.0000000
****
C     0
S   7   1.00
      0.731999D+04           0.695369D-03
      0.109818D+04           0.537138D-02
      0.250014D+03           0.274734D-01
      0.707586D+02           0.105078D+00
      0.228595D+02           0.291262D+00
      0.803936D+01           0.500000D+00
      0.289309D+01           0.362224D+00
S   2   1.00
      0.521640D+01          -0.957844D-01
      0.556124D+00           0.500000D+00
S   1   1.00
      0.228813D+00           1.0000000
S   1   1.00
      0.936338D-01           1.0000000
P   4   1.00
      0.339855D+02           0.818395D-02
      0.772957D+01           0.586921D-01
      0.224954D+01           0.222514D+00
      0.767681D+00           0.500000D+00
P   1   1.00
      0.263283D+00           1.0000000
P   1   1.00
      0.848744D-01           1.0000000
D   1   1.00
      0.140000D+01           1.0000000
D   1   1.00
      0.450000D+00           1.0000000
F   1   1.00
      0.950000D+00           1.0000000
****
Cl     0
S   8   1.00
      0.154272D+06           0.222473D-03
      0.231232D+05           0.172590D-02
      0.526257D+04           0.899286D-02
      0.148995D+04           0.367724D-01
      0.485417D+03           0.121446D+00
      0.174634D+03           0.304148D+00
      0.672393D+02           0.500000D+00
      0.265780D+02           0.360252D+00
S   3   1.00
      0.131826D+03          -0.531330D-01
      0.400703D+02          -0.233346D+00
      0.789448D+01           0.500000D+00
S   2   1.00
      0.427711D+01           0.500000D+00
      0.196233D+01           0.370517D+00
S   1   1.00
      0.520793D+00           1.0000000
S   1   1.00
      0.181633D+00           1.0000000
P   7   1.00
      0.124440D+04           0.988206D-03
      0.295109D+03           0.829674D-02
      0.947224D+02           0.430906D-01
      0.352588D+02           0.148443D+00
      0.144211D+02           0.344744D+00
      0.610371D+01           0.500000D+00
      0.258886D+01           0.348278D+00
P   2   1.00
      0.109447D+02          -0.196768D-01
      0.104413D+01           0.500000D+00
P   1   1.00
      0.376184D+00           1.0000000
P   1   1.00
      0.120613D+00           1.0000000
D   1   1.00
      0.231000D+01           1.0000000
D   1   1.00
      0.520000D+00           1.0000000
F   1   1.00
      0.720000D+00           1.0000000
****

