%chk=renumber_4.chk
# hf/3-21g geom=connectivity

Title Card Required

0 1
 C                 -5.88261721    1.01340527    0.00000000
 C                 -4.36751121    1.01340527    0.00000000
 C                 -4.36524321    3.22902027    1.16066100
 C                 -5.88036821    3.22968127    1.16017200
 C                 -6.43316821    1.81906027    1.15887600
 H                 -3.99691389    0.46687833    0.90424301
 H                 -3.99541587    0.46490790   -0.90423432
 H                 -6.25530521    1.44643427   -0.96538500
 H                 -6.25821421   -0.04081473    0.06350200
 H                 -3.99076277    2.79175379    2.12585301
 H                 -6.25568821    3.77910927    2.06228600
 H                 -6.25222321    3.77628227    0.25384900
 H                 -6.16716421    1.31333827    2.12419100
 H                 -7.55171621    1.85412127    1.09393800
 C                 -3.81558021    2.42448327    0.00000000
 C                 -4.21898723    3.00671603   -1.33941657
 C                 -2.31128970    2.45434832    0.18100080
 C                 -3.51398925    2.30388840   -2.48158877
 H                 -3.40833476    3.77856030   -1.27833355
 H                 -1.96330951    3.51942414    0.23457471
 H                 -2.03962063    1.96181607    1.15056224
 C                 -2.01010364    2.33150426   -2.30063182
 H                 -3.78476306    2.79765797   -3.45079390
 H                 -3.86332950    1.23931175   -2.53651229
 H                 -1.52201725    1.74912659   -3.12477002
 H                 -1.64518680    3.38973020   -2.37370359
 N                 -1.60634102    1.75079783   -0.96078224
 H                 -1.84495534    0.77987757   -0.94136442
 Cl                -5.74302216    3.85734587   -1.56601402
 Cl                -3.76973621    4.88256932    1.06713575

 1 2 1.0 5 1.0 9 1.0 8 1.0
 2 6 1.0 7 1.0 15 1.0
 3 4 1.0 10 1.0 15 1.0 30 1.0
 4 5 1.0 11 1.0 12 1.0
 5 14 1.0 13 1.0
 6
 7
 8
 9
 10
 11
 12
 13
 14
 15 16 1.0 17 1.0
 16 18 1.0 19 1.0 29 1.0
 17 20 1.0 21 1.0 27 1.0
 18 22 1.0 23 1.0 24 1.0
 19
 20
 21
 22 25 1.0 26 1.0 27 1.0
 23
 24
 25
 26
 27 28 1.0
 28
 29
 30

