%chk=renumber_0.chk
# hf/3-21g geom=connectivity

Title Card Required

0 1
 C                 -5.88261721    1.01340527    0.00000000
 C                 -4.36751121    1.01340527    0.00000000
 C                 -4.36524321    3.22902027    1.16066100
 C                 -5.88036821    3.22968127    1.16017200
 C                 -6.43316821    1.81906027    1.15887600
 H                 -3.99691389    0.46687833    0.90424301
 H                 -3.99541587    0.46490790   -0.90423432
 H                 -6.25530521    1.44643427   -0.96538500
 H                 -6.25821421   -0.04081473    0.06350200
 H                 -3.99076277    2.79175379    2.12585301
 H                 -6.25568821    3.77910927    2.06228600
 H                 -6.25222321    3.77628227    0.25384900
 H                 -6.16716421    1.31333827    2.12419100
 H                 -7.55171621    1.85412127    1.09393800
 C                 -3.81558021    2.42448327    0.00000000
 C                 -2.31158073    2.45418650    0.18130704
 C                 -4.21869620    3.00687785   -1.33972281
 C                 -1.76174704    3.85470806    0.00306994
 H                 -2.14927325    2.22331379   -0.90358291
 H                 -3.83517727    2.34851992   -2.16302406
 H                 -5.33659535    3.02890111   -1.41883011
 C                 -2.16579013    4.43861122   -1.33520741
 H                 -0.64374308    3.83200352    0.08076859
 H                 -2.14362647    4.51272219    0.82742675
 H                 -1.80013440    5.49567462   -1.40942798
 H                 -1.67804195    3.85447213   -2.15936101
 N                 -3.66952560    4.40772616   -1.51759944
 H                 -4.09213160    5.01100397   -0.84124151
 Cl                -1.46015151    1.22958386    1.11566064
 Cl                -3.76973621    4.88256932    1.06713575

 1 2 1.0 5 1.0 9 1.0 8 1.0
 2 6 1.0 7 1.0 15 1.0
 3 4 1.0 10 1.0 15 1.0 30 1.0
 4 5 1.0 11 1.0 12 1.0
 5 14 1.0 13 1.0
 6
 7
 8
 9
 10
 11
 12
 13
 14
 15 16 1.0 17 1.0
 16 18 1.0 19 1.0 29 1.0
 17 20 1.0 21 1.0 27 1.0
 18 22 1.0 23 1.0 24 1.0
 19
 20
 21
 22 25 1.0 26 1.0 27 1.0
 23
 24
 25
 26
 27 28 1.0
 28
 29
 30

