! aug-cc-pVTZ aug-cc-pVTZ/C DLPNO-CCSD(T) TightSCF TightPNO MiniPrint
%maxcore 4000
%pal
	nproc 4
end
%mdci
	density none
end

* xyz 0 1
 7         -2.59192634   -2.21198726    0.00000000
 1         -1.59236634   -2.24165320    0.00000000
 6         -3.27888036   -0.93617529    0.00000000
 1         -3.90371323   -0.85937226   -0.88982302
 6         -4.16550350   -0.79005325    1.23214102
 6         -2.28840137    0.21943574    0.00000000
 1         -3.55273032   -0.85570127    2.13119602
 8         -1.05147529   -0.01204927    0.00000000
 7         -2.77667761    1.60597324    0.00000000
 1         -3.75940657    1.78999817    0.01945589
 6         -1.83400333    2.70605183   -0.02819160
 1         -1.18843234    2.65457511    0.84855705
 6         -0.96291101    2.65067720   -1.27869356
 6         -2.55550909    4.04615879   -0.02290161
 1         -1.59452200    2.71041346   -2.16503406
 8         -3.81307602    4.08358955    0.00347381
 8         -1.80434930    5.26272535   -0.04790345
 6         -2.67382050    6.36615276    0.21924435
 1         -2.10181522    7.26956749    0.25863054
 1         -3.40495658    6.44054794   -0.55844808
 1         -3.16527271    6.21398306    1.15744436
 9         -0.27272248    1.49057508   -1.29610038
 9         -0.09860228    3.68770504   -1.27210140
 9         -4.78867817    0.40706316    1.19949698
 9         -5.08726215   -1.77632380    1.24357510
 6         -3.36436987   -3.46267939    0.00000000
 8         -4.58360243   -3.47888422   -0.13970006
 6         -2.54201651   -4.75124693    0.18689264
 1         -2.19710803   -5.09555006   -0.76567924
 1         -1.70233405   -4.54997635    0.81881291
 1         -3.15523267   -5.50351715    0.63739824
*

