%nprocshared=16GB
%mem=32GB
#p opt b3lyp/midix

None

0 1
 6 0.23402700 0.39962000 -0.00000200
 6 -1.17088400 -0.14858400 -0.00000100
 1 0.30089700 1.51180200 -0.00000700
 1 -1.81699818 0.48476220 -0.62209512
 1 -1.18055941 -1.17447799 -0.37487120
 1 -1.74235044 -0.19432224 0.93644702
 8 1.23769700 -0.27692200 0.00000200

