%nprocshared=16GB
%mem=32GB
#p opt b3lyp/midix

None

0 1
 6 -5.25541200 -0.33930900 2.27491600
 1 -5.03952200 -0.81509300 3.23910000
 1 -4.62406300 0.54022000 2.18244800
 7 -5.01627300 -1.29723700 1.20421100
 6 -4.17195500 -1.14691400 0.15220100
 8 -3.92860800 -2.07105900 -0.63642000
 6 -3.50792900 0.21735200 -0.11038900
 1 -3.35374300 0.79037200 0.80072500
 6 -1.00904700 0.27386200 -0.07109800
 6 0.31816704 -0.65342256 -1.99270404
 6 -0.66874150 -0.55784407 -2.98048493
 6 1.59502344 -1.11057082 -2.33470082
 6 -0.35481199 -0.88873375 -4.29684107
 1 -1.66616414 -0.23514300 -2.72074000
 6 1.88400389 -1.45436070 -3.65423237
 1 2.36275288 -1.18408960 -1.57127118
 6 0.91746398 -1.33787649 -4.65057683
 1 1.14830203 -1.59521231 -5.67698285
 6 3.23998358 -2.00538514 -3.99362341
 6 -1.39960458 -0.71451725 -5.36395695
 9 3.59415476 -1.73016900 -5.26750804
 9 4.20618695 -1.50884902 -3.18851779
 9 3.27967588 -3.35398371 -3.85994999
 9 -1.23570057 -1.59288387 -6.37921552
 9 -1.35568680 0.52385889 -5.91017931
 9 -2.65064776 -0.88482555 -4.88286200
 7 0.06460900 -0.37227400 -0.63758000
 7 -2.18318600 -0.09285400 -0.63084700
 6 -4.32600900 1.10136400 -1.11449600
 6 -3.58009500 2.43292600 -1.29611900
 6 -4.47087800 0.41006400 -2.47967500
 6 -5.72170500 1.38683600 -0.53736600
 1 -3.47774600 2.96681300 -0.34547000
 1 -2.57669800 2.27745700 -1.70403100
 1 -4.13099900 3.07697800 -1.99169100
 1 -5.00294600 -0.54224800 -2.40200700
 1 -5.02925000 1.05966400 -3.16351000
 1 -3.49350500 0.21582800 -2.93577800
 1 -6.27405600 2.04476600 -1.21777400
 1 -6.30997800 0.47169200 -0.41209000
 1 -5.65976900 1.89239200 0.43261300
 1 -2.19755100 -0.90153100 -1.24879100
 1 0.85853258 -0.53467854 -0.02637522
 6 -5.70183400 -2.57293600 1.37756300
 1 -6.76501900 -2.39188900 1.57097700
 1 -5.58665700 -3.16701700 0.47301900
 1 -5.28130700 -3.12333000 2.22883700
 1 -6.30412700 -0.01990000 2.27474200
16 -0.87547400 1.39792800 1.18703500

