%nprocshared=16GB
%mem=32GB
#p opt b3lyp/midix

None

0 1
 6 -5.25541200 -0.33930900 2.27491600
 1 -5.03952200 -0.81509300 3.23910000
 1 -4.62406300 0.54022000 2.18244800
 7 -5.01627300 -1.29723700 1.20421100
 6 -4.17195500 -1.14691400 0.15220100
 8 -3.92860800 -2.07105900 -0.63642000
 6 -3.50792900 0.21735200 -0.11038900
 1 -3.35374300 0.79037200 0.80072500
 6 -1.00904700 0.27386200 -0.07109800
 6 1.27901780 0.16391000 -1.10385815
 6 1.46355244 1.53359259 -1.32465531
 6 2.30738565 -0.73056478 -1.41799670
 6 2.68183392 1.98901640 -1.82386730
 1 0.66454912 2.22907076 -1.11403926
 6 3.51239088 -0.25669485 -1.93401454
 1 2.16781148 -1.79295214 -1.24626880
 6 3.71706180 1.10676902 -2.13287719
 1 4.65852700 1.47288409 -2.52354363
 6 4.58269213 -1.23504247 -2.32744345
 6 2.89742273 3.46772196 -1.99009185
 9 5.81922329 -0.70209044 -2.22296361
 9 4.55682174 -2.35061881 -1.56382555
 9 4.44026761 -1.64216557 -3.61279484
 9 3.76125733 3.74231659 -2.99384978
 9 3.41235852 4.02764344 -0.86973825
 9 1.74640007 4.12189831 -2.25984439
 7 0.06460900 -0.37227400 -0.63758000
 7 -2.18318600 -0.09285400 -0.63084700
 6 -4.32600900 1.10136400 -1.11449600
 6 -3.58009500 2.43292600 -1.29611900
 6 -4.47087800 0.41006400 -2.47967500
 6 -5.72170500 1.38683600 -0.53736600
 1 -3.47774600 2.96681300 -0.34547000
 1 -2.57669800 2.27745700 -1.70403100
 1 -4.13099900 3.07697800 -1.99169100
 1 -5.00294600 -0.54224800 -2.40200700
 1 -5.02925000 1.05966400 -3.16351000
 1 -3.49350500 0.21582800 -2.93577800
 1 -6.27405600 2.04476600 -1.21777400
 1 -6.30997800 0.47169200 -0.41209000
 1 -5.65976900 1.89239200 0.43261300
 1 -2.19755100 -0.90153100 -1.24879100
 1 0.05747329 -1.38529843 -0.57439967
 6 -5.70183400 -2.57293600 1.37756300
 1 -6.76501900 -2.39188900 1.57097700
 1 -5.58665700 -3.16701700 0.47301900
 1 -5.28130700 -3.12333000 2.22883700
 1 -6.30412700 -0.01990000 2.27474200
16 -0.87547400 1.39792800 1.18703500

