%nprocshared=16
%mem=32GB
#p opt freq=noraman m062x/6-31g(d) scrf=(smd,solvent=diethylether)

title

0 1
 7 1.53593189 1.23746416 0.49623005
 1 1.92377689 1.42234916 1.41481405
 6 1.59443289 -0.11967284 0.00732505
 1 1.13587689 -0.13234184 -0.98259595
 6 3.03734689 -0.56355884 -0.16592695
 6 0.91351789 -1.05411184 1.01214005
 1 3.61766289 -0.55280284 0.75838605
 8 1.53411589 -1.43060084 1.99212805
 7 -0.37641311 -1.43222284 0.78593905
 1 -0.79683811 -1.88558284 1.59435705
 6 -1.30950611 -0.82357184 -0.13108295
 1 -0.83590711 -0.60020284 -1.09061895
 6 -2.41234011 -1.84415284 -0.38731795
 6 -1.85741311 0.49647016 0.42790905
 1 -2.00342111 -2.81754584 -0.66846795
 8 -1.49631311 0.97158816 1.47720405
 8 -2.73979111 1.04005716 -0.39632895
 6 -3.17384011 2.35871016 -0.04441695
 1 -3.91625011 2.63429816 -0.79165095
 1 -3.61428411 2.36471716 0.95432805
 1 -2.32162111 3.04138216 -0.08460095
 9 -3.25955711 -1.42075484 -1.34794695
 9 -3.12993411 -1.99121184 0.76439505
 9 3.03233389 -1.82751384 -0.66927495
 9 3.64005489 0.23955616 -1.07847395
 6 0.69686389 2.16256216 -0.05803395
 8 0.04552589 1.92754516 -1.06740495
 6 0.60779689 3.46758316 0.69130905
 1 -0.17974511 3.36874916 1.44641805
 1 1.54363189 3.72267516 1.19438905
 1 0.33216489 4.26122916 -0.00429195

