%nprocshared=16
%mem=32GB
#p opt freq=noraman m062x/6-31g(d) scrf=(smd,solvent=diethylether)

title

0 1
 7 2.00948142 0.70845600 -0.33854016
 1 2.49523142 0.96066200 0.51559984
 6 1.72835842 -0.70009800 -0.54180316
 1 1.44446442 -0.83744700 -1.58915116
 6 2.98891742 -1.49691100 -0.27601016
 6 0.56289842 -1.10213300 0.37416384
 1 3.77500742 -1.27832300 -1.00350816
 8 0.70698342 -1.69505500 1.42508384
 7 -0.63736558 -0.64138100 -0.08990816
 1 -0.62001458 -0.05506400 -0.92342816
 6 -1.72508958 -0.44781700 0.82895584
 1 -1.57087458 -1.11600100 1.68265784
 6 -1.70794858 0.99226900 1.33361584
 6 -3.10422658 -0.73381400 0.25152484
 1 -2.46798858 1.21496800 2.08280884
 8 -4.11398358 -0.37419100 0.80921884
 8 -3.06612158 -1.40606700 -0.89076016
 6 -4.34746358 -1.70553900 -1.46242716
 1 -4.13824858 -2.24785500 -2.38282516
 1 -4.93094158 -2.32357000 -0.77708416
 1 -4.89012558 -0.78240600 -1.67552716
 9 -1.87630158 1.82180800 0.26449984
 9 -0.47618758 1.26316400 1.84258684
 9 3.46767642 -1.20217200 0.96349284
 9 2.70541342 -2.82059400 -0.31582116
 6 1.29153442 1.66763000 -0.99320316
 8 0.50074042 1.38300200 -1.88597816
 6 1.51094742 3.08027100 -0.51922716
 1 0.72147742 3.31427600 0.20270984
 1 2.48186842 3.21662800 -0.03853416
 1 1.41357742 3.76072800 -1.36617716

