%nprocshared=16
%mem=32GB
#p opt freq=noraman m062x/6-31g(d) scrf=(smd,solvent=diethylether)

title

0 1
 7 -2.78555747 -0.49385805 0.33082311
 1 -2.62931547 -1.22196305 1.01879611
 6 -1.61489747 0.16554295 -0.17920789
 1 -1.60376347 0.13716295 -1.27613289
 6 -1.61745847 1.63359295 0.23379411
 6 -0.38237647 -0.56056905 0.37506611
 1 -2.56944747 2.12291795 0.02445811
 8 -0.49028347 -1.53814405 1.10065711
 7 0.80985753 -0.05129305 -0.00190789
 1 0.85784853 0.79146995 -0.56157689
 6 2.03748053 -0.61015905 0.51404611
 1 1.89360953 -0.93553505 1.54846911
 6 2.43235253 -1.83431105 -0.31158389
 6 3.18561153 0.39180195 0.48060411
 1 1.60809153 -2.54445505 -0.41205889
 8 4.24351253 0.19165795 1.01755511
 8 2.88775553 1.47813495 -0.23232589
 6 3.93465953 2.45545495 -0.33045189
 1 3.52011153 3.27196895 -0.91877189
 1 4.21636653 2.80308195 0.66514311
 1 4.80365753 2.02285295 -0.82981089
 9 3.49449153 -2.45350205 0.25069311
 9 2.80970453 -1.41605305 -1.55138689
 9 -1.34106047 1.73276595 1.55965911
 9 -0.62734147 2.29875595 -0.43490489
 6 -3.99241847 -0.33025905 -0.27705489
 8 -4.14196447 0.46826295 -1.19251989
 6 -5.10893647 -1.20231605 0.24446111
 1 -5.29552247 -2.00097405 -0.48015789
 1 -4.87617247 -1.65126405 1.21234411
 1 -6.01797047 -0.60335205 0.32527411

