%nprocshared=16
%mem=32GB
#p opt freq=noraman m062x/6-31g(d) scrf=(smd,solvent=diethylether)

title

0 1
 7 1.19255626 0.79135679 0.35980968
 1 1.45559926 0.95676579 1.32476368
 6 1.52848826 -0.50179321 -0.19342832
 1 1.37626126 -0.43568021 -1.27634832
 6 2.99831926 -0.79502421 0.05995768
 6 0.66926726 -1.62991021 0.38339168
 1 3.31355226 -1.79136821 -0.24968832
 8 1.17599426 -2.58140621 0.95140968
 7 -0.67707574 -1.53014821 0.19776668
 1 -1.22001974 -2.20462621 0.72983668
 6 -1.39323274 -0.39771921 -0.33353232
 1 -0.83631874 0.07732879 -1.14800032
 6 -2.69926374 -0.91812321 -0.92297232
 6 -1.69710674 0.69734879 0.69383568
 1 -2.53412774 -1.66949221 -1.69856232
 8 -2.03861974 1.81110979 0.38019868
 8 -1.55705674 0.27217979 1.94683168
 6 -1.81423874 1.25982979 2.95200368
 1 -1.65343874 0.76005679 3.90583068
 1 -1.12444674 2.09998479 2.83876068
 1 -2.84174274 1.62120879 2.87626068
 9 -3.42588274 0.10235379 -1.42479032
 9 -3.42619574 -1.48333621 0.08418868
 9 3.73912826 0.13719379 -0.59672332
 9 3.25956726 -0.63801621 1.38714068
 6 0.96895026 1.87317379 -0.45693232
 8 0.79313726 1.73994479 -1.65764932
 6 0.88586126 3.20735979 0.24003468
 1 -0.15287874 3.54654579 0.20544968
 1 1.21855926 3.16493779 1.27924468
 1 1.49871826 3.92581379 -0.30892132

