%mem=32GB
%nprocshared=16
#p opt freq=noraman b3lyp/6-31g(d) empiricaldispersion=gd3bj

title

0 1
 6          0.25892001    0.68427002    0.00004500
 6          0.26511300   -0.72188503    0.00009000
 6         -0.94174701   -1.42160904   -0.00002100
 6         -2.11278510   -0.69088000   -0.00005500
 6         -2.10059190    0.71395302   -0.00000200
 6         -0.91770899    1.42733300    0.00002600
 6          2.30577111   -0.12622400   -0.00004900
 1         -0.94496202   -2.50599194   -0.00006100
 1         -3.06654501   -1.20746803   -0.00011100
 1         -3.04325199    1.25075197   -0.00001000
 1         -0.91311300    2.51203203    0.00002600
 1          3.38805890   -0.11864100   -0.00015700
 7          1.56522000   -1.19167602    0.00001600
 7          1.58790004    1.03645897    0.00010200
 1          1.96615100    1.96607995   -0.00071900

